sat
(:elim-unconstrained      10
 :max-memory              42.34
 :memory                  19.94
 :num-allocs              174477278
 :rlimit-count            6320064
 :sat-backjumps           19189
 :sat-backtracks          1
 :sat-conflicts           19190
 :sat-decisions           34239
 :sat-del-clause          48447
 :sat-elim-bool-vars-res  8749
 :sat-elim-clauses        931
 :sat-elim-literals       2074
 :sat-minimized-lits      311939
 :sat-mk-clause-2ary      27719
 :sat-mk-clause-3ary      11645
 :sat-mk-clause-nary      93108
 :sat-mk-var              18017
 :sat-probing-assigned    124
 :sat-propagations-2ary   2080282
 :sat-propagations-nary   3969912
 :sat-restarts            2740
 :sat-scc-elim-binary     139
 :sat-scc-elim-vars       58
 :sat-subs-resolution     970
 :sat-subs-resolution-dyn 15348
 :sat-subsumed            9301
 :sat-units               148
 :time                    1.83
 :total-time              1.85)
